Minimize
r
Subject to
x111 +x121 = 2
x112 +x122 = 3
x113 +x123 = 4
x114 +x124 = 5
x211 +x221 = 3
x212 +x222 = 4
x213 +x223 = 5
x214 +x224 = 6
x311 +x321 = 4
x312 +x322 = 5
x313 +x323 = 6
x314 +x324 = 7
u111 +u121 = 3.0
u112 +u122 = 3.0
u113 +u123 = 3.0
u114 +u124 = 3.0
u211 +u221 = 3.0
u212 +u222 = 3.0
u213 +u223 = 3.0
u214 +u224 = 3.0
u311 +u321 = 3.0
u312 +u322 = 3.0
u313 +u323 = 3.0
u314 +u324 = 3.0
3 x111 - 2 u111 = 0
3 x121 - 2 u121 = 0
3 x112 - 3 u112 = 0
3 x122 - 3 u122 = 0
3 x113 - 4 u113 = 0
3 x123 - 4 u123 = 0
3 x114 - 5 u114 = 0
3 x124 - 5 u124 = 0
3 x211 - 3 u211 = 0
3 x221 - 3 u221 = 0
3 x212 - 4 u212 = 0
3 x222 - 4 u222 = 0
3 x213 - 5 u213 = 0
3 x223 - 5 u223 = 0
3 x214 - 6 u214 = 0
3 x224 - 6 u224 = 0
3 x311 - 4 u311 = 0
3 x321 - 4 u321 = 0
3 x312 - 5 u312 = 0
3 x322 - 5 u322 = 0
3 x313 - 6 u313 = 0
3 x323 - 6 u323 = 0
3 x314 - 7 u314 = 0
3 x324 - 7 u324 = 0
x111 +x112 +x113 +x114 -c11 <= 0
x121 +x122 +x123 +x124 -c12 <= 0
x211 +x212 +x213 +x214 -c21 <= 0
x221 +x222 +x223 +x224 -c22 <= 0
x311 +x312 +x313 +x314 -c31 <= 0
x321 +x322 +x323 +x324 -c32 <= 0
x111 +x211 +x311 -d11 <= 0
x112 +x212 +x312 -d12 <= 0
x113 +x213 +x313 -d13 <= 0
x114 +x214 +x314 -d14 <= 0
x121 +x221 +x321 -d21 <= 0
x122 +x222 +x322 -d22 <= 0
x123 +x223 +x323 -d23 <= 0
x124 +x224 +x324 -d24 <= 0
x111 +x112 +x113 +x114 +x211 +x212 +x213 +x214 +x311 +x312 +x313 +x314 -r <= 0
x121 +x122 +x123 +x124 +x221 +x222 +x223 +x224 +x321 +x322 +x323 +x324 -r <= 0
Bounds 
0 <= x124
0 <= x113
0 <= x223
0 <= x314
0 <= x221
0 <= x112
0 <= x114
0 <= x313
0 <= x214
0 <= x123
0 <= x311
0 <= x321
0 <= x323
0 <= x324
0 <= x121
0 <= x222
0 <= x322
0 <= x122
0 <= x111
0 <= x213
0 <= x211
0 <= x312
0 <= x212
0 <= x224
0 <= r
Binaries
u322
u314
u221
u324
u111
u313
u122
u321
u323
u222
u112
u121
u124
u123
u211
u214
u113
u212
u224
u213
u223
u114
u311
u312
END